c description: Tseitin formula on Random 4-regular graph of 112 vertices, with odd charge
c generator: CNFgen (0.9.2)
c copyright: (C) 2012-2022 Massimo Lauria <massimo.lauria@uniroma1.it>
c url: https://massimolauria.net/cnfgen
c command line: cnfgen tseitin 112 4
c
p cnf 224 896
1 2 3 4 0
1 2 -3 -4 0
1 -2 3 -4 0
1 -2 -3 4 0
-1 2 3 -4 0
-1 2 -3 4 0
-1 -2 3 4 0
-1 -2 -3 -4 0
5 6 7 -8 0
5 6 -7 8 0
5 -6 7 8 0
5 -6 -7 -8 0
-5 6 7 8 0
-5 6 -7 -8 0
-5 -6 7 -8 0
-5 -6 -7 8 0
9 10 11 -12 0
9 10 -11 12 0
9 -10 11 12 0
9 -10 -11 -12 0
-9 10 11 12 0
-9 10 -11 -12 0
-9 -10 11 -12 0
-9 -10 -11 12 0
13 14 15 -16 0
13 14 -15 16 0
13 -14 15 16 0
13 -14 -15 -16 0
-13 14 15 16 0
-13 14 -15 -16 0
-13 -14 15 -16 0
-13 -14 -15 16 0
17 18 19 -20 0
17 18 -19 20 0
17 -18 19 20 0
17 -18 -19 -20 0
-17 18 19 20 0
-17 18 -19 -20 0
-17 -18 19 -20 0
-17 -18 -19 20 0
21 22 23 -24 0
21 22 -23 24 0
21 -22 23 24 0
21 -22 -23 -24 0
-21 22 23 24 0
-21 22 -23 -24 0
-21 -22 23 -24 0
-21 -22 -23 24 0
25 26 27 -28 0
25 26 -27 28 0
25 -26 27 28 0
25 -26 -27 -28 0
-25 26 27 28 0
-25 26 -27 -28 0
-25 -26 27 -28 0
-25 -26 -27 28 0
17 29 30 31 0
17 29 -30 -31 0
17 -29 30 -31 0
17 -29 -30 31 0
-17 29 30 -31 0
-17 29 -30 31 0
-17 -29 30 31 0
-17 -29 -30 -31 0
32 33 34 35 0
32 33 -34 -35 0
32 -33 34 -35 0
32 -33 -34 35 0
-32 33 34 -35 0
-32 33 -34 35 0
-32 -33 34 35 0
-32 -33 -34 -35 0
21 36 37 -38 0
21 36 -37 38 0
21 -36 37 38 0
21 -36 -37 -38 0
-21 36 37 38 0
-21 36 -37 -38 0
-21 -36 37 -38 0
-21 -36 -37 38 0
39 40 41 -42 0
39 40 -41 42 0
39 -40 41 42 0
39 -40 -41 -42 0
-39 40 41 42 0
-39 40 -41 -42 0
-39 -40 41 -42 0
-39 -40 -41 42 0
25 43 44 45 0
25 43 -44 -45 0
25 -43 44 -45 0
25 -43 -44 45 0
-25 43 44 -45 0
-25 43 -44 45 0
-25 -43 44 45 0
-25 -43 -44 -45 0
46 47 48 49 0
46 47 -48 -49 0
46 -47 48 -49 0
46 -47 -48 49 0
-46 47 48 -49 0
-46 47 -48 49 0
-46 -47 48 49 0
-46 -47 -48 -49 0
5 50 51 52 0
5 50 -51 -52 0
5 -50 51 -52 0
5 -50 -51 52 0
-5 50 51 -52 0
-5 50 -51 52 0
-5 -50 51 52 0
-5 -50 -51 -52 0
53 54 55 56 0
53 54 -55 -56 0
53 -54 55 -56 0
53 -54 -55 56 0
-53 54 55 -56 0
-53 54 -55 56 0
-53 -54 55 56 0
-53 -54 -55 -56 0
36 57 58 59 0
36 57 -58 -59 0
36 -57 58 -59 0
36 -57 -58 59 0
-36 57 58 -59 0
-36 57 -58 59 0
-36 -57 58 59 0
-36 -57 -58 -59 0
39 60 61 62 0
39 60 -61 -62 0
39 -60 61 -62 0
39 -60 -61 62 0
-39 60 61 -62 0
-39 60 -61 62 0
-39 -60 61 62 0
-39 -60 -61 -62 0
63 64 65 -66 0
63 64 -65 66 0
63 -64 65 66 0
63 -64 -65 -66 0
-63 64 65 66 0
-63 64 -65 -66 0
-63 -64 65 -66 0
-63 -64 -65 66 0
67 68 69 -70 0
67 68 -69 70 0
67 -68 69 70 0
67 -68 -69 -70 0
-67 68 69 70 0
-67 68 -69 -70 0
-67 -68 69 -70 0
-67 -68 -69 70 0
71 72 73 -74 0
71 72 -73 74 0
71 -72 73 74 0
71 -72 -73 -74 0
-71 72 73 74 0
-71 72 -73 -74 0
-71 -72 73 -74 0
-71 -72 -73 74 0
75 76 77 78 0
75 76 -77 -78 0
75 -76 77 -78 0
75 -76 -77 78 0
-75 76 77 -78 0
-75 76 -77 78 0
-75 -76 77 78 0
-75 -76 -77 -78 0
32 79 80 -81 0
32 79 -80 81 0
32 -79 80 81 0
32 -79 -80 -81 0
-32 79 80 81 0
-32 79 -80 -81 0
-32 -79 80 -81 0
-32 -79 -80 81 0
82 83 84 85 0
82 83 -84 -85 0
82 -83 84 -85 0
82 -83 -84 85 0
-82 83 84 -85 0
-82 83 -84 85 0
-82 -83 84 85 0
-82 -83 -84 -85 0
33 86 87 88 0
33 86 -87 -88 0
33 -86 87 -88 0
33 -86 -87 88 0
-33 86 87 -88 0
-33 86 -87 88 0
-33 -86 87 88 0
-33 -86 -87 -88 0
82 89 90 -91 0
82 89 -90 91 0
82 -89 90 91 0
82 -89 -90 -91 0
-82 89 90 91 0
-82 89 -90 -91 0
-82 -89 90 -91 0
-82 -89 -90 91 0
18 63 92 -93 0
18 63 -92 93 0
18 -63 92 93 0
18 -63 -92 -93 0
-18 63 92 93 0
-18 63 -92 -93 0
-18 -63 92 -93 0
-18 -63 -92 93 0
92 94 95 96 0
92 94 -95 -96 0
92 -94 95 -96 0
92 -94 -95 96 0
-92 94 95 -96 0
-92 94 -95 96 0
-92 -94 95 96 0
-92 -94 -95 -96 0
97 98 99 100 0
97 98 -99 -100 0
97 -98 99 -100 0
97 -98 -99 100 0
-97 98 99 -100 0
-97 98 -99 100 0
-97 -98 99 100 0
-97 -98 -99 -100 0
9 60 101 102 0
9 60 -101 -102 0
9 -60 101 -102 0
9 -60 -101 102 0
-9 60 101 -102 0
-9 60 -101 102 0
-9 -60 101 102 0
-9 -60 -101 -102 0
103 104 105 106 0
103 104 -105 -106 0
103 -104 105 -106 0
103 -104 -105 106 0
-103 104 105 -106 0
-103 104 -105 106 0
-103 -104 105 106 0
-103 -104 -105 -106 0
107 108 109 110 0
107 108 -109 -110 0
107 -108 109 -110 0
107 -108 -109 110 0
-107 108 109 -110 0
-107 108 -109 110 0
-107 -108 109 110 0
-107 -108 -109 -110 0
40 111 112 113 0
40 111 -112 -113 0
40 -111 112 -113 0
40 -111 -112 113 0
-40 111 112 -113 0
-40 111 -112 113 0
-40 -111 112 113 0
-40 -111 -112 -113 0
83 94 114 115 0
83 94 -114 -115 0
83 -94 114 -115 0
83 -94 -114 115 0
-83 94 114 -115 0
-83 94 -114 115 0
-83 -94 114 115 0
-83 -94 -114 -115 0
1 71 116 -117 0
1 71 -116 117 0
1 -71 116 117 0
1 -71 -116 -117 0
-1 71 116 117 0
-1 71 -116 -117 0
-1 -71 116 -117 0
-1 -71 -116 117 0
57 72 118 -119 0
57 72 -118 119 0
57 -72 118 119 0
57 -72 -118 -119 0
-57 72 118 119 0
-57 72 -118 -119 0
-57 -72 118 -119 0
-57 -72 -118 119 0
6 67 120 121 0
6 67 -120 -121 0
6 -67 120 -121 0
6 -67 -120 121 0
-6 67 120 -121 0
-6 67 -120 121 0
-6 -67 120 121 0
-6 -67 -120 -121 0
64 95 122 -123 0
64 95 -122 123 0
64 -95 122 123 0
64 -95 -122 -123 0
-64 95 122 123 0
-64 95 -122 -123 0
-64 -95 122 -123 0
-64 -95 -122 123 0
124 125 126 127 0
124 125 -126 -127 0
124 -125 126 -127 0
124 -125 -126 127 0
-124 125 126 -127 0
-124 125 -126 127 0
-124 -125 126 127 0
-124 -125 -126 -127 0
13 128 129 130 0
13 128 -129 -130 0
13 -128 129 -130 0
13 -128 -129 130 0
-13 128 129 -130 0
-13 128 -129 130 0
-13 -128 129 130 0
-13 -128 -129 -130 0
75 79 120 -131 0
75 79 -120 131 0
75 -79 120 131 0
75 -79 -120 -131 0
-75 79 120 131 0
-75 79 -120 -131 0
-75 -79 120 -131 0
-75 -79 -120 131 0
101 132 133 -134 0
101 132 -133 134 0
101 -132 133 134 0
101 -132 -133 -134 0
-101 132 133 134 0
-101 132 -133 -134 0
-101 -132 133 -134 0
-101 -132 -133 134 0
46 135 136 137 0
46 135 -136 -137 0
46 -135 136 -137 0
46 -135 -136 137 0
-46 135 136 -137 0
-46 135 -136 137 0
-46 -135 136 137 0
-46 -135 -136 -137 0
26 138 139 140 0
26 138 -139 -140 0
26 -138 139 -140 0
26 -138 -139 140 0
-26 138 139 -140 0
-26 138 -139 140 0
-26 -138 139 140 0
-26 -138 -139 -140 0
97 128 141 -142 0
97 128 -141 142 0
97 -128 141 142 0
97 -128 -141 -142 0
-97 128 141 142 0
-97 128 -141 -142 0
-97 -128 141 -142 0
-97 -128 -141 142 0
34 107 143 144 0
34 107 -143 -144 0
34 -107 143 -144 0
34 -107 -143 144 0
-34 107 143 -144 0
-34 107 -143 144 0
-34 -107 143 144 0
-34 -107 -143 -144 0
14 58 89 -145 0
14 58 -89 145 0
14 -58 89 145 0
14 -58 -89 -145 0
-14 58 89 145 0
-14 58 -89 -145 0
-14 -58 89 -145 0
-14 -58 -89 145 0
131 146 147 -148 0
131 146 -147 148 0
131 -146 147 148 0
131 -146 -147 -148 0
-131 146 147 148 0
-131 146 -147 -148 0
-131 -146 147 -148 0
-131 -146 -147 148 0
29 135 149 150 0
29 135 -149 -150 0
29 -135 149 -150 0
29 -135 -149 150 0
-29 135 149 -150 0
-29 135 -149 150 0
-29 -135 149 150 0
-29 -135 -149 -150 0
151 152 153 154 0
151 152 -153 -154 0
151 -152 153 -154 0
151 -152 -153 154 0
-151 152 153 -154 0
-151 152 -153 154 0
-151 -152 153 154 0
-151 -152 -153 -154 0
22 37 155 -156 0
22 37 -155 156 0
22 -37 155 156 0
22 -37 -155 -156 0
-22 37 155 156 0
-22 37 -155 -156 0
-22 -37 155 -156 0
-22 -37 -155 156 0
141 157 158 159 0
141 157 -158 -159 0
141 -157 158 -159 0
141 -157 -158 159 0
-141 157 158 -159 0
-141 157 -158 159 0
-141 -157 158 159 0
-141 -157 -158 -159 0
124 151 160 -161 0
124 151 -160 161 0
124 -151 160 161 0
124 -151 -160 -161 0
-124 151 160 161 0
-124 151 -160 -161 0
-124 -151 160 -161 0
-124 -151 -160 161 0
47 103 162 163 0
47 103 -162 -163 0
47 -103 162 -163 0
47 -103 -162 163 0
-47 103 162 -163 0
-47 103 -162 163 0
-47 -103 162 163 0
-47 -103 -162 -163 0
76 164 165 -166 0
76 164 -165 166 0
76 -164 165 166 0
76 -164 -165 -166 0
-76 164 165 166 0
-76 164 -165 -166 0
-76 -164 165 -166 0
-76 -164 -165 166 0
59 136 167 168 0
59 136 -167 -168 0
59 -136 167 -168 0
59 -136 -167 168 0
-59 136 167 -168 0
-59 136 -167 168 0
-59 -136 167 168 0
-59 -136 -167 -168 0
80 138 152 -169 0
80 138 -152 169 0
80 -138 152 169 0
80 -138 -152 -169 0
-80 138 152 169 0
-80 138 -152 -169 0
-80 -138 152 -169 0
-80 -138 -152 169 0
53 111 116 -170 0
53 111 -116 170 0
53 -111 116 170 0
53 -111 -116 -170 0
-53 111 116 170 0
-53 111 -116 -170 0
-53 -111 116 -170 0
-53 -111 -116 170 0
90 104 164 -171 0
90 104 -164 171 0
90 -104 164 171 0
90 -104 -164 -171 0
-90 104 164 171 0
-90 104 -164 -171 0
-90 -104 164 -171 0
-90 -104 -164 171 0
73 86 172 -173 0
73 86 -172 173 0
73 -86 172 173 0
73 -86 -172 -173 0
-73 86 172 173 0
-73 86 -172 -173 0
-73 -86 172 -173 0
-73 -86 -172 173 0
61 98 174 175 0
61 98 -174 -175 0
61 -98 174 -175 0
61 -98 -174 175 0
-61 98 174 -175 0
-61 98 -174 175 0
-61 -98 174 175 0
-61 -98 -174 -175 0
10 43 176 -177 0
10 43 -176 177 0
10 -43 176 177 0
10 -43 -176 -177 0
-10 43 176 177 0
-10 43 -176 -177 0
-10 -43 176 -177 0
-10 -43 -176 177 0
54 172 178 179 0
54 172 -178 -179 0
54 -172 178 -179 0
54 -172 -178 179 0
-54 172 178 -179 0
-54 172 -178 179 0
-54 -172 178 179 0
-54 -172 -178 -179 0
27 180 181 -182 0
27 180 -181 182 0
27 -180 181 182 0
27 -180 -181 -182 0
-27 180 181 182 0
-27 180 -181 -182 0
-27 -180 181 -182 0
-27 -180 -181 182 0
2 165 176 -183 0
2 165 -176 183 0
2 -165 176 183 0
2 -165 -176 -183 0
-2 165 176 183 0
-2 165 -176 -183 0
-2 -165 176 -183 0
-2 -165 -176 183 0
50 178 180 184 0
50 178 -180 -184 0
50 -178 180 -184 0
50 -178 -180 184 0
-50 178 180 -184 0
-50 178 -180 184 0
-50 -178 180 184 0
-50 -178 -180 -184 0
44 185 186 187 0
44 185 -186 -187 0
44 -185 186 -187 0
44 -185 -186 187 0
-44 185 186 -187 0
-44 185 -186 187 0
-44 -185 186 187 0
-44 -185 -186 -187 0
65 118 162 -188 0
65 118 -162 188 0
65 -118 162 188 0
65 -118 -162 -188 0
-65 118 162 188 0
-65 118 -162 -188 0
-65 -118 162 -188 0
-65 -118 -162 188 0
35 189 190 -191 0
35 189 -190 191 0
35 -189 190 191 0
35 -189 -190 -191 0
-35 189 190 191 0
-35 189 -190 -191 0
-35 -189 190 -191 0
-35 -189 -190 191 0
99 114 155 185 0
99 114 -155 -185 0
99 -114 155 -185 0
99 -114 -155 185 0
-99 114 155 -185 0
-99 114 -155 185 0
-99 -114 155 185 0
-99 -114 -155 -185 0
23 122 192 -193 0
23 122 -192 193 0
23 -122 192 193 0
23 -122 -192 -193 0
-23 122 192 193 0
-23 122 -192 -193 0
-23 -122 192 -193 0
-23 -122 -192 193 0
87 93 194 195 0
87 93 -194 -195 0
87 -93 194 -195 0
87 -93 -194 195 0
-87 93 194 -195 0
-87 93 -194 195 0
-87 -93 194 195 0
-87 -93 -194 -195 0
84 149 192 196 0
84 149 -192 -196 0
84 -149 192 -196 0
84 -149 -192 196 0
-84 149 192 -196 0
-84 149 -192 196 0
-84 -149 192 196 0
-84 -149 -192 -196 0
77 167 174 197 0
77 167 -174 -197 0
77 -167 174 -197 0
77 -167 -174 197 0
-77 167 174 -197 0
-77 167 -174 197 0
-77 -167 174 197 0
-77 -167 -174 -197 0
55 117 160 198 0
55 117 -160 -198 0
55 -117 160 -198 0
55 -117 -160 198 0
-55 117 160 -198 0
-55 117 -160 198 0
-55 -117 160 198 0
-55 -117 -160 -198 0
11 81 197 199 0
11 81 -197 -199 0
11 -81 197 -199 0
11 -81 -197 199 0
-11 81 197 -199 0
-11 81 -197 199 0
-11 -81 197 199 0
-11 -81 -197 -199 0
125 129 153 161 0
125 129 -153 -161 0
125 -129 153 -161 0
125 -129 -153 161 0
-125 129 153 -161 0
-125 129 -153 161 0
-125 -129 153 161 0
-125 -129 -153 -161 0
200 201 202 -203 0
200 201 -202 203 0
200 -201 202 203 0
200 -201 -202 -203 0
-200 201 202 203 0
-200 201 -202 -203 0
-200 -201 202 -203 0
-200 -201 -202 203 0
102 108 179 -204 0
102 108 -179 204 0
102 -108 179 204 0
102 -108 -179 -204 0
-102 108 179 204 0
-102 108 -179 -204 0
-102 -108 179 -204 0
-102 -108 -179 204 0
121 132 184 -205 0
121 132 -184 205 0
121 -132 184 205 0
121 -132 -184 -205 0
-121 132 184 205 0
-121 132 -184 -205 0
-121 -132 184 -205 0
-121 -132 -184 205 0
7 146 206 207 0
7 146 -206 -207 0
7 -146 206 -207 0
7 -146 -206 207 0
-7 146 206 -207 0
-7 146 -206 207 0
-7 -146 206 207 0
-7 -146 -206 -207 0
19 30 139 208 0
19 30 -139 -208 0
19 -30 139 -208 0
19 -30 -139 208 0
-19 30 139 -208 0
-19 30 -139 208 0
-19 -30 139 208 0
-19 -30 -139 -208 0
3 15 119 -200 0
3 15 -119 200 0
3 -15 119 200 0
3 -15 -119 -200 0
-3 15 119 200 0
-3 15 -119 -200 0
-3 -15 119 -200 0
-3 -15 -119 200 0
175 181 209 -210 0
175 181 -209 210 0
175 -181 209 210 0
175 -181 -209 -210 0
-175 181 209 210 0
-175 181 -209 -210 0
-175 -181 209 -210 0
-175 -181 -209 210 0
41 112 137 147 0
41 112 -137 -147 0
41 -112 137 -147 0
41 -112 -137 147 0
-41 112 137 -147 0
-41 112 -137 147 0
-41 -112 137 147 0
-41 -112 -137 -147 0
78 189 196 -211 0
78 189 -196 211 0
78 -189 196 211 0
78 -189 -196 -211 0
-78 189 196 211 0
-78 189 -196 -211 0
-78 -189 196 -211 0
-78 -189 -196 211 0
4 31 42 48 0
4 31 -42 -48 0
4 -31 42 -48 0
4 -31 -42 48 0
-4 31 42 -48 0
-4 31 -42 48 0
-4 -31 42 48 0
-4 -31 -42 -48 0
62 105 190 -212 0
62 105 -190 212 0
62 -105 190 212 0
62 -105 -190 -212 0
-62 105 190 212 0
-62 105 -190 -212 0
-62 -105 190 -212 0
-62 -105 -190 212 0
24 38 68 -208 0
24 38 -68 208 0
24 -38 68 208 0
24 -38 -68 -208 0
-24 38 68 208 0
-24 38 -68 -208 0
-24 -38 68 -208 0
-24 -38 -68 208 0
12 133 177 -206 0
12 133 -177 206 0
12 -133 177 206 0
12 -133 -177 -206 0
-12 133 177 206 0
-12 133 -177 -206 0
-12 -133 177 -206 0
-12 -133 -177 206 0
182 186 213 214 0
182 186 -213 -214 0
182 -186 213 -214 0
182 -186 -213 214 0
-182 186 213 -214 0
-182 186 -213 214 0
-182 -186 213 214 0
-182 -186 -213 -214 0
106 123 143 215 0
106 123 -143 -215 0
106 -123 143 -215 0
106 -123 -143 215 0
-106 123 143 -215 0
-106 123 -143 215 0
-106 -123 143 215 0
-106 -123 -143 -215 0
20 74 216 -217 0
20 74 -216 217 0
20 -74 216 217 0
20 -74 -216 -217 0
-20 74 216 217 0
-20 74 -216 -217 0
-20 -74 216 -217 0
-20 -74 -216 217 0
183 199 213 -218 0
183 199 -213 218 0
183 -199 213 218 0
183 -199 -213 -218 0
-183 199 213 218 0
-183 199 -213 -218 0
-183 -199 213 -218 0
-183 -199 -213 218 0
109 171 205 -216 0
109 171 -205 216 0
109 -171 205 216 0
109 -171 -205 -216 0
-109 171 205 216 0
-109 171 -205 -216 0
-109 -171 205 -216 0
-109 -171 -205 216 0
100 173 219 -220 0
100 173 -219 220 0
100 -173 219 220 0
100 -173 -219 -220 0
-100 173 219 220 0
-100 173 -219 -220 0
-100 -173 219 -220 0
-100 -173 -219 220 0
28 49 134 194 0
28 49 -134 -194 0
28 -49 134 -194 0
28 -49 -134 194 0
-28 49 134 -194 0
-28 49 -134 194 0
-28 -49 134 194 0
-28 -49 -134 -194 0
66 113 209 214 0
66 113 -209 -214 0
66 -113 209 -214 0
66 -113 -209 214 0
-66 113 209 -214 0
-66 113 -209 214 0
-66 -113 209 214 0
-66 -113 -209 -214 0
51 166 168 -195 0
51 166 -168 195 0
51 -166 168 195 0
51 -166 -168 -195 0
-51 166 168 195 0
-51 166 -168 -195 0
-51 -166 168 -195 0
-51 -166 -168 195 0
45 187 212 218 0
45 187 -212 -218 0
45 -187 212 -218 0
45 -187 -212 218 0
-45 187 212 -218 0
-45 187 -212 218 0
-45 -187 212 218 0
-45 -187 -212 -218 0
56 91 126 -154 0
56 91 -126 154 0
56 -91 126 154 0
56 -91 -126 -154 0
-56 91 126 154 0
-56 91 -126 -154 0
-56 -91 126 -154 0
-56 -91 -126 154 0
142 148 221 222 0
142 148 -221 -222 0
142 -148 221 -222 0
142 -148 -221 222 0
-142 148 221 -222 0
-142 148 -221 222 0
-142 -148 221 222 0
-142 -148 -221 -222 0
8 16 157 -223 0
8 16 -157 223 0
8 -16 157 223 0
8 -16 -157 -223 0
-8 16 157 223 0
-8 16 -157 -223 0
-8 -16 157 -223 0
-8 -16 -157 223 0
115 127 198 -221 0
115 127 -198 221 0
115 -127 198 221 0
115 -127 -198 -221 0
-115 127 198 221 0
-115 127 -198 -221 0
-115 -127 198 -221 0
-115 -127 -198 221 0
130 193 201 222 0
130 193 -201 -222 0
130 -193 201 -222 0
130 -193 -201 222 0
-130 193 201 -222 0
-130 193 -201 222 0
-130 -193 201 222 0
-130 -193 -201 -222 0
110 188 207 224 0
110 188 -207 -224 0
110 -188 207 -224 0
110 -188 -207 224 0
-110 188 207 -224 0
-110 188 -207 224 0
-110 -188 207 224 0
-110 -188 -207 -224 0
88 145 215 -224 0
88 145 -215 224 0
88 -145 215 224 0
88 -145 -215 -224 0
-88 145 215 224 0
-88 145 -215 -224 0
-88 -145 215 -224 0
-88 -145 -215 224 0
52 85 156 163 0
52 85 -156 -163 0
52 -85 156 -163 0
52 -85 -156 163 0
-52 85 156 -163 0
-52 85 -156 163 0
-52 -85 156 163 0
-52 -85 -156 -163 0
169 191 202 -219 0
169 191 -202 219 0
169 -191 202 219 0
169 -191 -202 -219 0
-169 191 202 219 0
-169 191 -202 -219 0
-169 -191 202 -219 0
-169 -191 -202 219 0
140 144 150 203 0
140 144 -150 -203 0
140 -144 150 -203 0
140 -144 -150 203 0
-140 144 150 -203 0
-140 144 -150 203 0
-140 -144 150 203 0
-140 -144 -150 -203 0
69 158 211 -220 0
69 158 -211 220 0
69 -158 211 220 0
69 -158 -211 -220 0
-69 158 211 220 0
-69 158 -211 -220 0
-69 -158 211 -220 0
-69 -158 -211 220 0
70 170 204 217 0
70 170 -204 -217 0
70 -170 204 -217 0
70 -170 -204 217 0
-70 170 204 -217 0
-70 170 -204 217 0
-70 -170 204 217 0
-70 -170 -204 -217 0
96 159 210 223 0
96 159 -210 -223 0
96 -159 210 -223 0
96 -159 -210 223 0
-96 159 210 -223 0
-96 159 -210 223 0
-96 -159 210 223 0
-96 -159 -210 -223 0
